
Starting CP-SAT solver v9.15.6755
Parameters: random_seed: 2026073346 max_time_in_seconds: 2500 log_search_progress: true cp_model_presolve: true linearization_level: 2 num_search_workers: 4 cp_model_probing_level: 2 symmetry_level: 2

Initial satisfaction model '': (model_fingerprint: 0x1824fabc0c5a7951)
#Variables: 724 (604 primary variables)
  - 724 Booleans in [0,1]
#kBoolAnd: 110 (#enforced: 110) (#literals: 330)
#kBoolOr: 110 (#enforced: 110) (#literals: 220)
#kExactlyOne: 87 (#literals: 261)
#kLinear1: 36 (#enforced: 6)
#kLinear2: 336 (#enforced: 336) (#complex_domain: 110)
#kLinear3: 1'600 (#enforced: 6)
#kLinearN: 1'132 (#enforced: 243) (#terms: 9'111)

Starting presolve at 0.00s
  5.51e-04s  0.00e+00d  [DetectDominanceRelations] 
  6.91e-03s  0.00e+00d  [PresolveToFixPoint] #num_loops=3 #num_dual_strengthening=1 
  3.00e-05s  0.00e+00d  [ExtractEncodingFromLinear] #potential_supersets=99 
  2.47e-04s  0.00e+00d  [DetectDuplicateColumns] 
  8.25e-05s  0.00e+00d  [DetectDuplicateConstraints] #duplicates=9 
[Symmetry] Graph for symmetry has 4'852 nodes and 15'594 arcs.
[Symmetry] Symmetry computation done. time: 0.00103208 dtime: 0.00180507
[SAT presolve] num removable Booleans: 220 / 620
[SAT presolve] num trivial clauses: 0
[SAT presolve] [0s] clauses:2'694 literals:7'336 vars:505 one_side_vars:65 simple_definition:1 singleton_clauses:0
[SAT presolve] [0.000192028s] clauses:2'693 literals:7'329 vars:505 one_side_vars:65 simple_definition:1 singleton_clauses:0
[SAT presolve] [0.000569555s] clauses:2'211 literals:6'552 vars:376 one_side_vars:71 simple_definition:69 singleton_clauses:0
  9.53e-05s  0.00e+00d  [DetectDuplicateConstraintsWithDifferentEnforcements] #without_enforcements=3 
  4.19e-03s  2.22e-03d  [Probe] #probed=1'270 #fixed_bools=28 #equiv=14 #new_binary_clauses=728 
  3.56e-04s  2.01e-04d  [MaxClique] Merged 581 constraints with 1'310 literals into 529 constraints with 1'215 literals
  7.20e-04s  0.00e+00d  [DetectDominanceRelations] 
  2.52e-03s  0.00e+00d  [PresolveToFixPoint] #num_loops=1 #num_dual_strengthening=1 
  9.07e-04s  0.00e+00d  [ProcessAtMostOneAndLinear] 
  8.27e-05s  0.00e+00d  [DetectDuplicateConstraints] #duplicates=15 
  6.65e-05s  0.00e+00d  [DetectDuplicateConstraintsWithDifferentEnforcements] 
  6.26e-04s  5.55e-05d  [DetectDominatedLinearConstraints] #relevant_constraints=806 #num_inclusions=287 #num_redundant=7 
  8.83e-05s  0.00e+00d  [DetectDifferentVariables] 
  5.79e-04s  8.04e-05d  [ProcessSetPPC] #relevant_constraints=2'899 #num_inclusions=80 
  2.39e-04s  3.34e-05d  [TransformClausesToExactlyOne] #num_amos=453 #num_clauses=1'653 #num_checked=1'653 
  2.93e-05s  0.00e+00d  [DetectEncodedComplexDomains] 
  2.66e-05s  1.90e-07d  [FindAlmostIdenticalLinearConstraints] #num_tested_pairs=2 
  7.15e-04s  1.34e-03d  [FindBigAtMostOneAndLinearOverlap] 
  1.17e-03s  1.23e-03d  [FindBigVerticalLinearOverlap] #blocks=2 #saved_nz=65 
  3.01e-04s  6.87e-04d  [FindBigHorizontalLinearOverlap] #linears=441 
  2.56e-04s  2.69e-05d  [MergeClauses] #num_collisions=25 #num_merges=25 #num_saved_literals=125 
  6.91e-04s  0.00e+00d  [DetectDominanceRelations] 
  2.40e-03s  0.00e+00d  [PresolveToFixPoint] #num_loops=2 #num_dual_strengthening=1 
  6.83e-04s  0.00e+00d  [DetectDominanceRelations] 
  2.28e-03s  0.00e+00d  [PresolveToFixPoint] #num_loops=1 #num_dual_strengthening=1 
  1.60e-04s  0.00e+00d  [DetectDuplicateColumns] 
  6.70e-05s  0.00e+00d  [DetectDuplicateConstraints] 
[Symmetry] Graph for symmetry has 4'172 nodes and 12'963 arcs.
[Symmetry] Symmetry computation done. time: 0.000721253 dtime: 0.00128109
[SAT presolve] num removable Booleans: 90 / 448
[SAT presolve] num trivial clauses: 0
[SAT presolve] [0s] clauses:2'062 literals:6'204 vars:425 one_side_vars:127 simple_definition:84 singleton_clauses:0
[SAT presolve] [0.000169845s] clauses:2'062 literals:6'020 vars:425 one_side_vars:173 simple_definition:68 singleton_clauses:0
[SAT presolve] [0.000234863s] clauses:2'052 literals:6'010 vars:420 one_side_vars:176 simple_definition:53 singleton_clauses:0
  1.36e-04s  0.00e+00d  [DetectDuplicateConstraintsWithDifferentEnforcements] #without_enforcements=1 
  4.10e-03s  1.68e-03d  [Probe] #probed=1'242 #new_binary_clauses=116 
  2.76e-04s  1.75e-04d  [MaxClique] Merged 450 constraints with 975 literals into 442 constraints with 973 literals
  6.93e-04s  0.00e+00d  [DetectDominanceRelations] 
  2.32e-03s  0.00e+00d  [PresolveToFixPoint] #num_loops=1 #num_dual_strengthening=1 
  8.22e-04s  0.00e+00d  [ProcessAtMostOneAndLinear] 
  9.74e-05s  0.00e+00d  [DetectDuplicateConstraints] 
  7.57e-05s  0.00e+00d  [DetectDuplicateConstraintsWithDifferentEnforcements] 
  3.21e-03s  9.63e-05d  [DetectDominatedLinearConstraints] #relevant_constraints=799 #num_inclusions=459 #num_redundant=1 
  1.04e-04s  0.00e+00d  [DetectDifferentVariables] 
  5.85e-04s  7.36e-05d  [ProcessSetPPC] #relevant_constraints=2'930 #num_inclusions=92 
  2.39e-04s  3.26e-05d  [TransformClausesToExactlyOne] #num_amos=440 #num_clauses=1'645 #num_checked=1'645 
  3.35e-05s  0.00e+00d  [DetectEncodedComplexDomains] 
  3.02e-05s  2.70e-07d  [FindAlmostIdenticalLinearConstraints] #num_tested_pairs=3 
  6.96e-04s  1.19e-03d  [FindBigAtMostOneAndLinearOverlap] 
  1.11e-03s  1.06e-03d  [FindBigVerticalLinearOverlap] #blocks=3 #saved_nz=240 
  2.66e-04s  5.76e-04d  [FindBigHorizontalLinearOverlap] #linears=443 
  2.78e-04s  2.59e-05d  [MergeClauses] #num_collisions=77 #num_merges=77 #num_saved_literals=233 
  7.07e-04s  0.00e+00d  [DetectDominanceRelations] 
  2.35e-03s  0.00e+00d  [PresolveToFixPoint] #num_loops=2 #num_dual_strengthening=1 
  6.80e-04s  0.00e+00d  [DetectDominanceRelations] 
  2.28e-03s  0.00e+00d  [PresolveToFixPoint] #num_loops=1 #num_dual_strengthening=1 
  1.45e-04s  0.00e+00d  [DetectDuplicateColumns] 
  6.94e-05s  0.00e+00d  [DetectDuplicateConstraints] 
[Symmetry] Graph for symmetry has 4'112 nodes and 12'368 arcs.
[Symmetry] Symmetry computation done. time: 0.000727462 dtime: 0.00122977
[SAT presolve] num removable Booleans: 85 / 443
[SAT presolve] num trivial clauses: 0
[SAT presolve] [0s] clauses:2'041 literals:5'979 vars:420 one_side_vars:178 simple_definition:53 singleton_clauses:0
[SAT presolve] [0.000158878s] clauses:2'041 literals:5'979 vars:420 one_side_vars:178 simple_definition:53 singleton_clauses:0
[SAT presolve] [0.000210886s] clauses:2'041 literals:5'979 vars:420 one_side_vars:178 simple_definition:53 singleton_clauses:0
  8.09e-05s  0.00e+00d  [DetectDuplicateConstraintsWithDifferentEnforcements] 
  3.86e-03s  1.61e-03d  [Probe] #probed=1'242 #new_binary_clauses=115 
  2.87e-04s  1.66e-04d  [MaxClique] Merged 440 constraints with 955 literals into 439 constraints with 954 literals
  6.79e-04s  0.00e+00d  [DetectDominanceRelations] 
  2.30e-03s  0.00e+00d  [PresolveToFixPoint] #num_loops=1 #num_dual_strengthening=1 
  8.06e-04s  0.00e+00d  [ProcessAtMostOneAndLinear] 
  9.42e-05s  0.00e+00d  [DetectDuplicateConstraints] 
  6.85e-05s  0.00e+00d  [DetectDuplicateConstraintsWithDifferentEnforcements] 
  1.04e-03s  5.67e-05d  [DetectDominatedLinearConstraints] #relevant_constraints=802 #num_inclusions=304 
  9.92e-05s  0.00e+00d  [DetectDifferentVariables] 
  5.74e-04s  6.55e-05d  [ProcessSetPPC] #relevant_constraints=2'929 #num_inclusions=52 
  2.19e-04s  3.26e-05d  [TransformClausesToExactlyOne] #num_amos=439 #num_clauses=1'645 #num_checked=1'645 
  4.83e-05s  0.00e+00d  [DetectEncodedComplexDomains] 
  3.44e-05s  1.60e-07d  [FindAlmostIdenticalLinearConstraints] #num_tested_pairs=2 
  6.12e-04s  9.11e-04d  [FindBigAtMostOneAndLinearOverlap] 
  8.93e-04s  8.18e-04d  [FindBigVerticalLinearOverlap] 
  2.71e-04s  5.76e-04d  [FindBigHorizontalLinearOverlap] #linears=443 
  2.73e-04s  2.59e-05d  [MergeClauses] #num_collisions=77 #num_merges=77 #num_saved_literals=233 
  7.08e-04s  0.00e+00d  [DetectDominanceRelations] 
  2.34e-03s  0.00e+00d  [PresolveToFixPoint] #num_loops=1 #num_dual_strengthening=1 
  1.62e-05s  0.00e+00d  [MergeNoOverlap] 
  1.59e-05s  0.00e+00d  [MergeNoOverlap2D] 

Presolve summary:
  - 42 affine relations were detected.
  - rule 'TODO dual: only one blocking constraint?' was applied 759 times.
  - rule 'TODO dual: tighten at most one' was applied 8 times.
  - rule 'TODO linear inclusion: superset is equality' was applied 292 times.
  - rule 'affine: new relation' was applied 42 times.
  - rule 'at_most_one: removed literals' was applied 127 times.
  - rule 'at_most_one: size one' was applied 126 times.
  - rule 'at_most_one: transformed into max clique' was applied 3 times.
  - rule 'bool_or: implications' was applied 51 times.
  - rule 'bool_or: only one literal' was applied 12 times.
  - rule 'bool_or: removed enforcement literal' was applied 557 times.
  - rule 'deductions: 777 stored' was applied 1 time.
  - rule 'duplicate: merged rhs of linear constraint' was applied 23 times.
  - rule 'duplicate: removed constraint' was applied 24 times.
  - rule 'duplicate: removed enforced constraint' was applied 4 times.
  - rule 'enforcement: false literal' was applied 48 times.
  - rule 'enforcement: true literal' was applied 22 times.
  - rule 'exactly_one: removed literals' was applied 30 times.
  - rule 'exactly_one: satisfied' was applied 7 times.
  - rule 'exactly_one: singleton' was applied 3 times.
  - rule 'exactly_one: size two' was applied 27 times.
  - rule 'exactly_one: x and not(x)' was applied 12 times.
  - rule 'incompatible linear: add implication' was applied 105 times.
  - rule 'linear + amo: empty after processing' was applied 5 times.
  - rule 'linear + amo: extracted enforcement literal' was applied 46 times.
  - rule 'linear + amo: trivial linear constraint' was applied 1 time.
  - rule 'linear inclusion: redundant containing constraint' was applied 3 times.
  - rule 'linear inclusion: redundant included constraint' was applied 3 times.
  - rule 'linear inclusion: sparsify superset' was applied 2 times.
  - rule 'linear matrix: common vertical rectangle' was applied 5 times.
  - rule 'linear1: always true' was applied 1 time.
  - rule 'linear1: x in domain' was applied 30 times.
  - rule 'linear2: convert ax + by != cte to clauses' was applied 244 times.
  - rule 'linear2: convert implied ax + by == cte to clauses' was applied 114 times.
  - rule 'linear2: implied ax + by = cte has only one solution' was applied 8 times.
  - rule 'linear: always true' was applied 429 times.
  - rule 'linear: coefficient strengthening by increasing it' was applied 2 times.
  - rule 'linear: empty' was applied 3 times.
  - rule 'linear: enforcement literal in expression' was applied 2 times.
  - rule 'linear: extracted at most one (max)' was applied 1 time.
  - rule 'linear: fixed or dup variables' was applied 885 times.
  - rule 'linear: negative clause' was applied 1'281 times.
  - rule 'linear: negative reified and' was applied 74 times.
  - rule 'linear: never in domain' was applied 5 times.
  - rule 'linear: positive at most one' was applied 48 times.
  - rule 'linear: positive equal one' was applied 1 time.
  - rule 'linear: reduced variable domains' was applied 6 times.
  - rule 'linear: remapped using affine relations' was applied 27 times.
  - rule 'presolve: 103 unused variables removed.' was applied 1 time.
  - rule 'presolve: iteration' was applied 3 times.
  - rule 'probing: bool_or reduced to implication' was applied 27 times.
  - rule 'probing: simplified clauses' was applied 17 times.
  - rule 'setppc: bool_or in at_most_one' was applied 6 times.
  - rule 'setppc: removed dominated constraints' was applied 74 times.
  - rule 'variables: both boolean and its negation fix the same variable' was applied 1 time.
  - rule 'variables: detect half reified value encoding' was applied 2 times.

Presolved satisfaction model '': (model_fingerprint: 0xd6fef4b28b9e9b2)
#Variables: 447 (381 primary variables)
  - 443 Booleans in [0,1]
  - 3 in [0,2]
  - 1 in [0,8]
#kAtMostOne: 45 (#literals: 166)
#kBoolAnd: 252 (#enforced: 252) (#literals: 646)
#kBoolAndClauses: 77 (#enforced: 77 #multi: 77) (#literals: 387)
#kBoolOr: 1'491 (#literals: 4'567)
#kExactlyOne: 44 (#literals: 179)
#kLinear3: 1
#kLinearN: 801 (#enforced: 104) (#terms: 5'248)
[Symmetry] Graph for symmetry has 3'830 nodes and 12'366 arcs.
[Symmetry] Symmetry computation done. time: 0.000604387 dtime: 0.00120981

Preloading model.
#Model   0.07s var:447/447 constraints:2711/2711

Starting search at 0.07s with 4 workers.
3 full problem subsolvers: [default_lp, max_lp, no_lp]
1 first solution subsolver: [fj]
2 interleaved subsolvers: [feasibility_pump, rins/rens]
2 helper subsolvers: [neighborhood_helper, synchronization_agent]

#Model   7.35s var:446/447 constraints:2694/2711
#Model 415.69s var:445/447 constraints:2674/2711
#Model 476.97s var:444/447 constraints:2653/2711
#Model 568.02s var:443/447 constraints:2636/2711
#Model 569.47s var:442/447 constraints:2617/2711
#Model 569.92s var:441/447 constraints:2597/2711
#Model 570.49s var:433/447 constraints:2513/2711
#Model 570.81s var:431/447 constraints:2473/2711
#Model 571.23s var:430/447 constraints:2457/2711
#Done  571.26s no_lp

Task timing                   n [     min,      max]      avg      dev     time         n [     min,      max]      avg      dev    dtime
        'default_lp':         1 [   9.52m,    9.52m]    9.52m   0.00ns    9.52m         2 [  1.65ms,   11.62m]    5.81m    5.81m   11.62m
  'feasibility_pump':      3076 [778.31us,  89.89ms]   1.24ms   1.61ms    3.82s      3075 [273.58us,  99.98ms] 307.28us   1.80ms 944.87ms
                'fj':      2989 [ 41.08ms, 131.07ms] 102.91ms   6.35ms    5.13m      2989 [ 32.85ms, 100.13ms] 100.00ms   1.23ms    4.98m
            'max_lp':         1 [   9.52m,    9.52m]    9.52m   0.00ns    9.52m         2 [ 71.71ms,   15.55m]    7.78m    7.78m   15.55m
             'no_lp':         1 [   9.52m,    9.52m]    9.52m   0.00ns    9.52m         2 [  1.38ms,   22.94m]   11.47m   11.47m   22.94m
         'rins/rens':      3076 [ 15.68ms, 140.13ms]  84.33ms  31.93ms    4.32m      3076 [378.57us, 100.33ms]  67.84ms  37.37ms    3.48m

Search stats     Bools  Conflicts    Branches  Restarts  BacktrackToRoot  Backtrack   BoolPropag  IntegerPropag
  'default_lp':    443     77'406   3'825'055       422          569'346    800'098   36'510'608     44'108'227
      'max_lp':    443     47'434   5'453'204       266          807'027  1'056'363   50'407'313     66'261'851
       'no_lp':    443  7'755'238  11'013'786    28'069          257'556  7'982'683  607'726'641    155'395'444

SAT formula      Fixed  Equiv  Total  VarLeft  BinaryClauses  PermanentClauses  TemporaryClauses
  'default_lp':      6      0    443      437          2'554            18'939             2'591
      'max_lp':      4      0    443      439          2'490            21'689             5'703
       'no_lp':    230      0    443      213          2'476            43'654             5'554

SAT stats        ClassicMinim  LitRemoved  LitRemovedBinary   LitLearned  LitForgotten   Subsumed
  'default_lp':        66'477     702'368           513'464    1'732'885       833'171     32'792
      'max_lp':        38'852     334'040           279'111      857'635       226'242     21'789
       'no_lp':     6'877'245  98'555'949        48'015'989  173'444'932   134'618'613  2'136'584

Vivification     Clauses  Decisions  LitTrue  Subsumed  LitRemoved  DecisionReused  Conflicts
  'default_lp':  625'866  3'638'691        0    15'181     139'797         218'392      1'529
      'max_lp':  877'060  5'267'664        0    15'527     144'471         279'092      1'615
       'no_lp':  205'130  1'748'531        0    18'386     242'413          53'960      1'611

Clause deletion    at_true  l_and_not(l)  to_binary  sub_conflict  sub_extra  sub_decisions  sub_eager  sub_vivify  sub_probing  sub_inpro  blocked  eliminated  forgotten    promoted  conflicts
    'default_lp':    6'945             0         12        32'241        204          1'046        551      15'181        5'921     15'407        0           0     27'175     137'254     77'406
        'max_lp':    4'365             0          7        21'592        121            493        197      15'527        4'463     12'551        0           0      8'629      76'485     47'434
         'no_lp':   56'088             0         85     2'095'664     16'926         83'920     40'920      18'386       12'480    104'764        0           0  5'281'558  17'544'109  7'755'238

Lp stats         Component  Iterations  AddedCuts  OPTIMAL  DUAL_F.  DUAL_U.
  'default_lp':          1   8'526'477     27'611   93'071        0   47'493
      'max_lp':          1   4'035'070     30'156   14'557   24'430   11'142

Lp dimension        Final dimension of first component
  'default_lp':    392 rows, 319 columns, 9435 entries
      'max_lp':  1275 rows, 447 columns, 23794 entries

Lp debug         CutPropag  CutEqPropag  Adjust  Overflow      Bad  BadScaling
  'default_lp':          0           21  47'493         0  909'243           0
      'max_lp':          0           13  11'140         0  850'908           0

Lp pool          Constraints  Updates  Simplif  Merged  Shortened  Split  Strengthened      Cuts/Call
  'default_lp':       10'377    8'493    8'578       0      8'584    646             0  27'611/33'360
      'max_lp':       12'153   11'069        0       2         65      0           789  30'156/45'268

Lp Cut            default_lp  max_lp
          CG_FF:         353      47
           CG_K:         165       4
          CG_KL:         142       2
           CG_R:         385      31
          CG_RB:           1       1
         Clique:           -      98
             IB:           8      11
       MIR_1_FF:         194     461
        MIR_1_K:          39      17
       MIR_1_KL:          83      14
        MIR_1_R:         168     270
       MIR_1_RB:           2       -
      MIR_1_RLT:           -   3'106
       MIR_2_FF:         152     265
        MIR_2_K:          33      71
       MIR_2_KL:          52      53
        MIR_2_R:         138     403
       MIR_3_FF:          95      76
        MIR_3_K:          12      12
       MIR_3_KL:          28      10
        MIR_3_R:          66     131
       MIR_4_FF:          25      21
        MIR_4_K:           1       7
       MIR_4_KL:           4       1
        MIR_4_R:          32      70
       MIR_5_FF:           5       5
        MIR_5_K:           1       1
        MIR_5_R:          20      68
       MIR_6_FF:           6       2
        MIR_6_K:           2       1
       MIR_6_KL:           1       -
        MIR_6_R:          23      83
       MIR_6_RB:           1       -
      MIR_6_RBP:           1       2
   ZERO_HALF_FF:         175     236
    ZERO_HALF_K:          14       4
   ZERO_HALF_KL:          22       4
    ZERO_HALF_R:      25'110  24'517
  ZERO_HALF_RBP:          52      51

LNS stats       Improv/Calls  Closed  Difficulty  TimeLimit
  'rins/rens':     3076/3076     50%    7.85e-01       0.10

LS stats                                    Batches  Restarts/Perturbs    LinMoves   GenMoves  CompoundMoves  Bactracks  WeightUpdates  ScoreComputed
                             'fj_restart':      349                 57  10'082'805          0              0          0      9'037'521     12'632'788
                    'fj_restart_compound':      163                 52           0  1'633'297        116'795    758'145          3'904     29'467'767
                'fj_restart_compound_obj':      202                 44           0  2'042'632        114'354    964'060          5'354     36'684'242
            'fj_restart_compound_perturb':      183                 47           0  1'828'451        109'081    859'605          4'670     33'151'460
        'fj_restart_compound_perturb_obj':      129                 45           0  1'291'301        104'528    593'331          2'812     23'182'596
                       'fj_restart_decay':      188                 50   5'468'197          0              0          0        253'803      2'773'710
              'fj_restart_decay_compound':      148                 33           0  1'649'998        277'037    686'391          1'918     26'626'838
          'fj_restart_decay_compound_obj':      142                 45           0  1'550'778        265'531    642'530          1'873     25'478'338
      'fj_restart_decay_compound_perturb':      251                 31           0  2'916'936        493'037  1'211'880          3'235     45'185'541
  'fj_restart_decay_compound_perturb_obj':      186                 48           0  2'069'709        349'276    860'087          2'406     33'436'571
                   'fj_restart_decay_obj':      155                 57   4'503'027          0              0          0        209'325      2'294'968
               'fj_restart_decay_perturb':      238                 54   6'929'034          0              0          0        321'547      3'519'603
           'fj_restart_decay_perturb_obj':      175                 60   5'092'688          0              0          0        236'593      2'585'421
                         'fj_restart_obj':       85                 37   2'421'070          0              0          0      2'055'056      2'892'315
                     'fj_restart_perturb':      159                 44   4'703'039          0              0          0      3'791'378      5'429'947
                 'fj_restart_perturb_obj':      236                 63   6'789'763          0              0          0      5'743'839      8'330'928

Solution repositories    Added  Queried  Synchro
    'alternative_path':      0        0        0
      'best_solutions':      0        0        0
   'fj solution hints':    759        0      759
        'lp solutions':    362    3'076      356
                'pump':      0        0

Improving bounds shared    Num  Sym
            'default_lp':    1    0
                 'no_lp':  156    0

Clauses shared    #Exported  #Imported  #BinaryRead  #BinaryTotal
   'default_lp':      3'834     49'285          964         1'054
       'max_lp':      3'996     48'253          913         1'054
        'no_lp':     48'969      7'057        1'054         1'054

LRAT_status: NA
CpSolverResponse summary:
status: INFEASIBLE
objective: NA
best_bound: NA
integers: 331
booleans: 443
conflicts: 7755238
branches: 11013786
propagations: 607726641
integer_propagations: 155395444
restarts: 28069
lp_iterations: 0
walltime: 571.284
usertime: 571.284
deterministic_time: 3515.72
gap_integral: 0

{
  "board_size": 22,
  "parity_proved": 0,
  "target": 34,
  "child_id": 1246,
  "child_count": 2640,
  "partition": "unknown_pair_x_diag_plus_twos_x_diag_minus_twos",
  "build_seconds": 0.06202363967895508,
  "workers": 4,
  "requested_seed": 2026073346,
  "effective_seed": 2026073346,
  "main_diagonal_pair": [
    3,
    7
  ],
  "pair_index": 60,
  "diag_plus_twos": 15,
  "diag_minus_twos": 16,
  "pair_excess": 10,
  "residual_certificate_slack": 102,
  "analytic_minimum_line_defect": 48,
  "analytic_defect_details": {
    "row_costs": {
      "12": 6,
      "13": 3,
      "14": 0,
      "15": 0,
      "16": 0,
      "17": 0
    },
    "column_costs": {
      "12": 6,
      "13": 3,
      "14": 0,
      "15": 0,
      "16": 0,
      "17": 0
    },
    "plus_cost": 48,
    "minus_cost": 0,
    "row_column_minimum": 0
  },
  "maximal_line_constraints": 2455,
  "analytic_infeasible": false,
  "allowed_points": 242,
  "status": "INFEASIBLE",
  "proof_method": "cp_sat_all_lines_with_certificate_profile_cuts",
  "elapsed_seconds": 571.2845249176025,
  "branches": 11013786,
  "conflicts": 7755238
}
